## Data in AMPL format              
                  
set T := y1 y2 y3 y4 y5;               
set I :=                
P1                  
P2                  
P3                  
P4                  
P5                  
P6                  
P7                  
P8                  
P9                  
P10                  
P11                  
P12                  
P13                  
P14                  
P15                  
P16 ;  

set Sm := S1 S2 S3 S4 S5 S6 S7 S8 S9 S10; 

set J := A B C ;

set IM:=                   
P2                  
P5                  
P7                  
P10                  
P12                  
P14                  
;                  
                  
set IJ:=                  
P1 A                 
P2 A                 
P3 A                 
P4 A                 
P5 A                 
P6 A                 
P7 A                 
P8 A                 
P9 A                 
P10 A                 
P11 A                 
P12 A                 
P13 A                 
P14 A                 
P15 A                 
P16 A                 
P1 B                 
P2 B                 
P3 B                 
P4 B                 
P5 B                 
P6 B                 
P7 B                 
P8 B                 
P10 B                 
P11 B                 
P13 B                 
P15 B                 
P16 B                 
P2 C                 
P6 C                 
P10 C                 
P16 C                 
;                  
                  
param a:=                  
P1 A 27.98                
P2 A -10.07                
P3 A 20.23                
P4 A 35                
P5 A -18.6                
P6 A 9.48                
P7 A -1.44                
P8 A 5.18                
P9 A 2.1                
P10 A -5.03                
P11 A 41.14                
P12 A -5.25                
P13 A 167.94                
P14 A -6.52                
P15 A 16.72                
P16 A 8.26                
P1 B 27.16504854                
P2 B -9.776699029                
P3 B 20.8369                
P4 B 33.98058252                
P5 B -17.02163486                
P6 B 8.935809219                
P7 B -1.317803989                
P8 B 4.882646809                
P10 B -5.1809                
P11 B 37.64892787                
P13 B 163.0485437                
P15 B 15.7602036                
P16 B 7.559070106                
P2 C -9.21547651                
P6 C 8.675542931                
P10 C -4.883495146                
P16 C 7.338903016          
;                  
                  
param	b:	S1	S2	S3	S4	S5	S6	S7	S8	S9	S10	:=
y1		19	22.15	24.25	26.35	28.45	30.55	32.65	34.75	36.85	40	
y2		19	22.15	24.25	26.35	28.45	30.55	32.65	34.75	36.85	40	
y3		19	22.15	24.25	26.35	28.45	30.55	32.65	34.75	36.85	40	
y4		19	22.15	24.25	26.35	28.45	30.55	32.65	34.75	36.85	40	
y5		19	22.15	24.25	26.35	28.45	30.55	32.65	34.75	36.85	40	
;												


                                   
param c:=                      
P1 A y1 13.01               
P1 B y1 0               
P2 A y1 9.19               
P2 B y1 0               
P2 C y1 0               
P3 A y1 0               
P3 B y1 0               
P4 A y1 0               
P4 B y1 0               
P5 A y1 0               
P5 B y1 0               
P6 A y1 0               
P6 B y1 0               
P6 C y1 0               
P7 A y1 1.32               
P7 B y1 0               
P8 A y1 2.35               
P8 B y1 0               
P9 A y1 0.29               
P10 A y1 0               
P10 B y1 0               
P10 C y1 0               
P11 A y1 0               
P11 B y1 0               
P12 A y1 5.27               
P13 A y1 0               
P13 B y1 0               
P14 A y1 5.94               
P15 A y1 5.26               
P15 B y1 0               
P16 A y1 3.17               
P16 B y1 0               
P16 C y1 0               
P1 A y2 1.31               
P1 B y2 13.01               
P2 A y2 0.93               
P2 B y2 9.19               
P2 C y2 0               
P3 A y2 0               
P3 B y2 0               
P4 A y2 4.51               
P4 B y2 0               
P5 A y2 18.63               
P5 B y2 0               
P6 A y2 2.44               
P6 B y2 0               
P6 C y2 0               
P7 A y2 0.14               
P7 B y2 0               
P8 A y2 0               
P8 B y2 0               
P9 A y2 0               
P10 A y2 0               
P10 B y2 4.58               
P10 C y2 0               
P11 A y2 19.85               
P11 B y2 0               
P12 A y2 0               
P13 A y2 0               
P13 B y2 0               
P14 A y2 0.61               
P15 A y2 0               
P15 B y2 0               
P16 A y2 0               
P16 B y2 0               
P16 C y2 0               
P1 A y3 0               
P1 B y3 1.31               
P2 A y3 0               
P2 B y3 0.93               
P2 C y3 0               
P3 A y3 0               
P3 B y3 10.09               
P4 A y3 0.31               
P4 B y3 4.51               
P5 A y3 0               
P5 B y3 0               
P6 A y3 0               
P6 B y3 0               
P6 C y3 0               
P7 A y3 0               
P7 B y3 0               
P8 A y3 0               
P8 B y3 2.35               
P9 A y3 0               
P10 A y3 4.58               
P10 B y3 0.47               
P10 C y3 0               
P11 A y3 0               
P11 B y3 0               
P12 A y3 0               
P13 A y3 18.79               
P13 B y3 0               
P14 A y3 0               
P15 A y3 0               
P15 B y3 5.26               
P16 A y3 0               
P16 B y3 0               
P16 C y3 0               
P1 A y4 0               
P1 B y4 0               
P2 A y4 0               
P2 B y4 0               
P2 C y4 9.19               
P3 A y4 10.09               
P3 B y4 1.11               
P4 A y4 0.21               
P4 B y4 0.31               
P5 A y4 0               
P5 B y4 0               
P6 A y4 0               
P6 B y4 2.44               
P6 C y4 0               
P7 A y4 0               
P7 B y4 1.32               
P8 A y4 0               
P8 B y4 0               
P9 A y4 0               
P10 A y4 0.47               
P10 B y4 0               
P10 C y4 4.58               
P11 A y4 0               
P11 B y4 0               
P12 A y4 0               
P13 A y4 0               
P13 B y4 18.79               
P14 A y4 0               
P15 A y4 0               
P15 B y4 0               
P16 A y4 0               
P16 B y4 3.17               
P16 C y4 0               
P1 A y5 0               
P1 B y5 0               
P2 A y5 0               
P2 B y5 0               
P2 C y5 0.93               
P3 A y5 1.11               
P3 B y5 0               
P4 A y5 0               
P4 B y5 0.21               
P5 A y5 0               
P5 B y5 18.63               
P6 A y5 0               
P6 B y5 0               
P6 C y5 2.44               
P7 A y5 0               
P7 B y5 0.14               
P8 A y5 0               
P8 B y5 0               
P9 A y5 0               
P10 A y5 0               
P10 B y5 0               
P10 C y5 0.47               
P11 A y5 0               
P11 B y5 19.85               
P12 A y5 0               
P13 A y5 0               
P13 B y5 0               
P14 A y5 0               
P15 A y5 0               
P15 B y5 0               
P16 A y5 0               
P16 B y5 0               
P16 C y5 3.17               
;                  
                  
param q:=                 
S1 0.1                 
S2 0.1                 
S3 0.1                 
S4 0.1                 
S5 0.1                 
S6 0.1                 
S7 0.1                 
S8 0.1                 
S9 0.1                 
S10 0.1 ;      

param epsradius:=1.0;
                  
param	dist:	S1	S2	S3	S4	S5	S6	S7	S8	S9	S10	:=
S1		0.0000	7.0436	11.7394	16.4351	21.1308	25.8266	30.5223	35.2181	39.9138	46.9574	
S2		7.0436	0.0000	4.6957	9.3915	14.0872	18.7830	23.4787	28.1745	32.8702	39.9138	
S3		11.7394	4.6957	0.0000	4.6957	9.3915	14.0872	18.7830	23.4787	28.1745	35.2181	
S4		16.4351	9.3915	4.6957	0.0000	4.6957	9.3915	14.0872	18.7830	23.4787	30.5223	
S5		21.1308	14.0872	9.3915	4.6957	0.0000	4.6957	9.3915	14.0872	18.7830	25.8266	
S6		25.8266	18.7830	14.0872	9.3915	4.6957	0.0000	4.6957	9.3915	14.0872	21.1308	
S7		30.5223	23.4787	18.7830	14.0872	9.3915	4.6957	0.0000	4.6957	9.3915	16.4351	
S8		35.2181	28.1745	23.4787	18.7830	14.0872	9.3915	4.6957	0.0000	4.6957	11.7394	
S9		39.9138	32.8702	28.1745	23.4787	18.7830	14.0872	9.3915	4.6957	0.0000	7.0436	
S10		46.9574	39.9138	35.2181	30.5223	25.8266	21.1308	16.4351	11.7394	7.0436	0.0000	;